LAMMPS data file generated with LigParGen (israel.cabezadevaca@yale.edu)

       9 atoms
       8 bonds
      13 angles
       6 dihedrals
       9 atom types
       8 bond types
      13 angle types
       6 dihedral types

    0.000000    50.000000 xlo xhi
   -1.015000    48.985000 ylo yhi
   -0.869000    49.131000 zlo zhi

Masses

       1     18.998
       2     32.067
       3     15.999
       4     15.999
       5     14.007
       6     32.067
       7     15.999
       8     15.999
       9     18.998

Pair Coeffs

       1      0.060  2.9000000
       2      0.250  3.5500000
       3      0.170  2.9600000
       4      0.170  2.9600000
       5      0.170  3.2500000
       6      0.250  3.5500000
       7      0.170  2.9600000
       8      0.170  2.9600000
       9      0.060  2.9000000

Bond Coeffs

       1   250.0000     1.7300
       2   700.0000     1.4400
       3   700.0000     1.4400
       4   250.0000     1.7300
       5   700.0000     1.4400
       6   700.0000     1.4400
       7   450.0000     1.6000
       8   450.0000     1.6000

Angle Coeffs

       1     76.450    103.980
       2     76.450    103.980
       3     80.290    117.310
       4     76.450    103.980
       5     76.450    103.980
       6     76.450    103.980
       7     76.450    103.980
       8    104.000    123.000
       9     62.000    106.200
      10     62.000    106.200
      11    104.000    123.000
      12     62.000    106.200
      13     62.000    106.200

Dihedral Coeffs

       1      0.000      0.000      0.000      0.000
       2      0.000      0.000      0.000      0.000
       3      0.000      0.000      0.000      0.000
       4      0.000      0.000      0.000      0.000
       5      0.000      0.000      0.000      0.000
       6      0.000      0.000      0.000      0.000

Atoms

     1      1      1  -0.223235  3.17000  1.44300 -0.86900
     2      1      2   1.700468  2.65300  0.13500 -0.10700
     3      1      3  -0.519978  1.23700  0.29600  0.09600
     4      1      4  -0.519978  3.23900 -1.01500 -0.74600
     5      1      5  -1.876291  3.32000  0.16900  1.45500
     6      1      6   1.699874  4.87300  0.85400  1.51100
     7      1      7  -0.520668  4.65800  2.27700  1.54000
     8      1      8  -0.520668  5.54800  0.13700  2.56200
     9      1      9  -0.219524  5.60600  0.48600  0.13800

Bonds

     1      1      2      5
     2      2      3      2
     3      3      4      2
     4      4      6      5
     5      5      7      6
     6      6      8      6
     7      7      9      6
     8      8      1      2

Angles

     1      1      3      2      5
     2      2      4      2      5
     3      3      6      5      2
     4      4      7      6      5
     5      5      8      6      5
     6      6      9      6      5
     7      7      1      2      5
     8      8      4      2      3
     9      9      1      2      3
    10     10      1      2      4
    11     11      8      6      7
    12     12      9      6      7
    13     13      9      6      8

Dihedrals

     1      1      6      5      2      3
     2      2      7      6      5      2
     3      3      8      6      5      2
     4      4      9      6      5      2
     5      5      1      2      5      6
     6      6      6      5      2      4


