LAMMPS data file generated with LigParGen (israel.cabezadevaca@yale.edu)

       7 atoms
       6 bonds
      15 angles
       0 dihedrals
       7 atom types
       6 bond types
      15 angle types
       0 dihedral types

    0.000000    50.000000 xlo xhi
   -1.412000    48.588000 ylo yhi
   -1.110000    48.890000 zlo zhi

Masses

       1     30.974
       2     18.998
       3     18.998
       4     18.998
       5     18.998
       6     18.998
       7     18.998

Pair Coeffs

       1      0.200  3.7400000
       2      0.060  2.9000000
       3      0.060  2.9000000
       4      0.060  2.9000000
       5      0.060  2.9000000
       6      0.060  2.9000000
       7      0.060  2.9000000

Bond Coeffs

       1   306.4200     1.5500
       2   306.4200     1.5500
       3   306.4200     1.5500
       4   306.4200     1.5500
       5   306.4200     1.5500
       6   306.4200     1.5500

Angle Coeffs

       1     63.570    108.400
       2     63.570    108.400
       3     63.570    108.400
       4     63.570    108.400
       5     63.570    108.400
       6     63.570    108.400
       7     63.570    108.400
       8     63.570    108.400
       9     63.570    108.400
      10     63.570    108.400
      11     63.570    108.400
      12     63.570    108.400
      13     63.570    108.400
      14     63.570    108.400
      15     63.570    108.400

Dihedral Coeffs


Atoms

     1      1      1   3.115235  2.99800  0.12100  0.39600
     2      1      2  -0.685872  1.46900 -0.00900  0.12600
     3      1      3  -0.685872  3.29500 -0.40900  1.82800
     4      1      4  -0.685872  4.35100  0.87100  0.49500
     5      1      5  -0.685872  3.09200 -1.41200  0.14300
     6      1      6  -0.685872  3.34100  0.30200 -1.11000
     7      1      7  -0.685875  2.33500  1.42300  0.92700

Bonds

     1      1      2      1
     2      2      3      1
     3      3      4      1
     4      4      5      1
     5      5      6      1
     6      6      7      1

Angles

     1      1      3      1      2
     2      2      4      1      2
     3      3      5      1      2
     4      4      6      1      2
     5      5      7      1      2
     6      6      4      1      3
     7      7      5      1      3
     8      8      6      1      3
     9      9      7      1      3
    10     10      5      1      4
    11     11      6      1      4
    12     12      7      1      4
    13     13      6      1      5
    14     14      7      1      5
    15     15      7      1      6

Dihedrals



